# Objective value = 1.7464249196572979e+01
X[0,0] 0
X[0,1] 0
X[0,2] 0
X[0,3] 0
X[0,4] 0
X[0,5] 0
X[0,6] 0
X[0,7] 0
X[0,8] 0
X[0,9] 0
X[0,10] 0
X[0,11] 0
X[0,12] 0
X[0,13] 0
X[0,14] 0
X[0,15] 0
X[0,16] 0
X[0,17] 0
X[0,18] 0
X[0,19] 0
X[0,20] 0
X[0,21] 0
X[0,22] 0
X[0,23] 0
X[0,24] 0
X[0,25] 0
X[0,26] 0
X[0,27] 0
X[0,28] 0
X[0,29] 0
X[0,30] 0
X[0,31] 0
X[0,32] 0
X[0,33] 0
X[0,34] 0
X[0,35] 0
X[0,36] 0
X[0,37] 0
X[0,38] 0
X[0,39] 0
X[0,40] 0
X[0,41] 0
X[0,42] 0
X[0,43] 0
X[0,44] 0
X[0,45] 1
X[0,46] 0
X[0,47] 0
X[0,48] 0
X[0,49] 0
X[0,50] 0
X[0,51] 0
X[0,52] 0
X[0,53] 0
X[0,54] 0
X[1,0] 0
X[1,1] 0
X[1,2] 0
X[1,3] 0
X[1,4] 0
X[1,5] 0
X[1,6] 0
X[1,7] 0
X[1,8] 0
X[1,9] 0
X[1,10] 0
X[1,11] 0
X[1,12] 0
X[1,13] 0
X[1,14] 0
X[1,15] 0
X[1,16] 0
X[1,17] 0
X[1,18] 0
X[1,19] 0
X[1,20] 0
X[1,21] 0
X[1,22] 0
X[1,23] 0
X[1,24] 0
X[1,25] 0
X[1,26] 0
X[1,27] 0
X[1,28] 0
X[1,29] 0
X[1,30] 0
X[1,31] 0
X[1,32] 0
X[1,33] 0
X[1,34] 0
X[1,35] 0
X[1,36] 0
X[1,37] 0
X[1,38] 0
X[1,39] 0
X[1,40] 1
X[1,41] 0
X[1,42] 0
X[1,43] 0
X[1,44] 0
X[1,45] 0
X[1,46] 0
X[1,47] 0
X[1,48] 0
X[1,49] 0
X[1,50] 0
X[1,51] 0
X[1,52] 0
X[1,53] 0
X[1,54] 0
X[2,0] 0
X[2,1] 0
X[2,2] 0
X[2,3] 0
X[2,4] 0
X[2,5] 0
X[2,6] 0
X[2,7] 0
X[2,8] 0
X[2,9] 0
X[2,10] 0
X[2,11] 0
X[2,12] 0
X[2,13] 0
X[2,14] 0
X[2,15] 0
X[2,16] 0
X[2,17] 0
X[2,18] 0
X[2,19] 0
X[2,20] 0
X[2,21] 0
X[2,22] 0
X[2,23] 0
X[2,24] 0
X[2,25] 0
X[2,26] 0
X[2,27] 0
X[2,28] 0
X[2,29] 0
X[2,30] 0
X[2,31] 0
X[2,32] 0
X[2,33] 0
X[2,34] 0
X[2,35] 0
X[2,36] 0
X[2,37] 0
X[2,38] 0
X[2,39] 0
X[2,40] 1
X[2,41] 0
X[2,42] 0
X[2,43] 0
X[2,44] 0
X[2,45] 0
X[2,46] 0
X[2,47] 0
X[2,48] 0
X[2,49] 0
X[2,50] 0
X[2,51] 0
X[2,52] 0
X[2,53] 0
X[2,54] 0
X[3,0] 0
X[3,1] 0
X[3,2] 0
X[3,3] 0
X[3,4] 0
X[3,5] 0
X[3,6] 0
X[3,7] 0
X[3,8] 0
X[3,9] 0
X[3,10] 0
X[3,11] 0
X[3,12] 0
X[3,13] 0
X[3,14] 0
X[3,15] 0
X[3,16] 0
X[3,17] 0
X[3,18] 0
X[3,19] 0
X[3,20] 0
X[3,21] 0
X[3,22] 0
X[3,23] 0
X[3,24] 0
X[3,25] 0
X[3,26] 0
X[3,27] 0
X[3,28] 0
X[3,29] 0
X[3,30] 0
X[3,31] 0
X[3,32] 0
X[3,33] 0
X[3,34] 0
X[3,35] 0
X[3,36] 0
X[3,37] 0
X[3,38] 0
X[3,39] 0
X[3,40] 0
X[3,41] 0
X[3,42] 0
X[3,43] 0
X[3,44] 0
X[3,45] 1
X[3,46] 0
X[3,47] 0
X[3,48] 0
X[3,49] 0
X[3,50] 0
X[3,51] 0
X[3,52] 0
X[3,53] 0
X[3,54] 0
X[4,0] 0
X[4,1] 0
X[4,2] 0
X[4,3] 0
X[4,4] 0
X[4,5] 0
X[4,6] 0
X[4,7] 0
X[4,8] 0
X[4,9] 0
X[4,10] 0
X[4,11] 0
X[4,12] 0
X[4,13] 0
X[4,14] 0
X[4,15] 0
X[4,16] 0
X[4,17] 0
X[4,18] 0
X[4,19] 0
X[4,20] 0
X[4,21] 0
X[4,22] 0
X[4,23] 0
X[4,24] 0
X[4,25] 0
X[4,26] 0
X[4,27] 0
X[4,28] 0
X[4,29] 0
X[4,30] 0
X[4,31] 0
X[4,32] 0
X[4,33] 0
X[4,34] 0
X[4,35] 0
X[4,36] 0
X[4,37] 0
X[4,38] 0
X[4,39] 0
X[4,40] 0
X[4,41] 0
X[4,42] 0
X[4,43] 0
X[4,44] 0
X[4,45] 1
X[4,46] 0
X[4,47] 0
X[4,48] 0
X[4,49] 0
X[4,50] 0
X[4,51] 0
X[4,52] 0
X[4,53] 0
X[4,54] 0
X[5,0] 0
X[5,1] 0
X[5,2] 0
X[5,3] 0
X[5,4] 0
X[5,5] 0
X[5,6] 0
X[5,7] 0
X[5,8] 0
X[5,9] 0
X[5,10] 0
X[5,11] 0
X[5,12] 0
X[5,13] 0
X[5,14] 0
X[5,15] 0
X[5,16] 0
X[5,17] 0
X[5,18] 0
X[5,19] 0
X[5,20] 0
X[5,21] 0
X[5,22] 0
X[5,23] 0
X[5,24] 0
X[5,25] 0
X[5,26] 0
X[5,27] 0
X[5,28] 0
X[5,29] 0
X[5,30] 0
X[5,31] 0
X[5,32] 0
X[5,33] 0
X[5,34] 0
X[5,35] 0
X[5,36] 0
X[5,37] 0
X[5,38] 0
X[5,39] 0
X[5,40] 1
X[5,41] 0
X[5,42] 0
X[5,43] 0
X[5,44] 0
X[5,45] 0
X[5,46] 0
X[5,47] 0
X[5,48] 0
X[5,49] 0
X[5,50] 0
X[5,51] 0
X[5,52] 0
X[5,53] 0
X[5,54] 0
X[6,0] 0
X[6,1] 0
X[6,2] 0
X[6,3] 0
X[6,4] 0
X[6,5] 0
X[6,6] 0
X[6,7] 0
X[6,8] 0
X[6,9] 0
X[6,10] 0
X[6,11] 0
X[6,12] 0
X[6,13] 0
X[6,14] 0
X[6,15] 0
X[6,16] 0
X[6,17] 0
X[6,18] 0
X[6,19] 0
X[6,20] 0
X[6,21] 0
X[6,22] 0
X[6,23] 0
X[6,24] 0
X[6,25] 0
X[6,26] 0
X[6,27] 0
X[6,28] 0
X[6,29] 0
X[6,30] 0
X[6,31] 0
X[6,32] 0
X[6,33] 0
X[6,34] 0
X[6,35] 0
X[6,36] 0
X[6,37] 0
X[6,38] 0
X[6,39] 0
X[6,40] 1
X[6,41] 0
X[6,42] 0
X[6,43] 0
X[6,44] 0
X[6,45] 0
X[6,46] 0
X[6,47] 0
X[6,48] 0
X[6,49] 0
X[6,50] 0
X[6,51] 0
X[6,52] 0
X[6,53] 0
X[6,54] 0
X[7,0] 0
X[7,1] 0
X[7,2] 0
X[7,3] 0
X[7,4] 0
X[7,5] 0
X[7,6] 0
X[7,7] 0
X[7,8] 0
X[7,9] 0
X[7,10] 0
X[7,11] 0
X[7,12] 0
X[7,13] 0
X[7,14] 0
X[7,15] 0
X[7,16] 0
X[7,17] 0
X[7,18] 0
X[7,19] 0
X[7,20] 0
X[7,21] 0
X[7,22] 0
X[7,23] 0
X[7,24] 0
X[7,25] 0
X[7,26] 0
X[7,27] 0
X[7,28] 0
X[7,29] 0
X[7,30] 0
X[7,31] 0
X[7,32] 0
X[7,33] 0
X[7,34] 0
X[7,35] 0
X[7,36] 0
X[7,37] 0
X[7,38] 0
X[7,39] 0
X[7,40] 0
X[7,41] 0
X[7,42] 0
X[7,43] 0
X[7,44] 0
X[7,45] 1
X[7,46] 0
X[7,47] 0
X[7,48] 0
X[7,49] 0
X[7,50] 0
X[7,51] 0
X[7,52] 0
X[7,53] 0
X[7,54] 0
X[8,0] 0
X[8,1] 0
X[8,2] 0
X[8,3] 0
X[8,4] 0
X[8,5] 0
X[8,6] 0
X[8,7] 0
X[8,8] 0
X[8,9] 0
X[8,10] 0
X[8,11] 0
X[8,12] 0
X[8,13] 0
X[8,14] 0
X[8,15] 0
X[8,16] 0
X[8,17] 0
X[8,18] 0
X[8,19] 0
X[8,20] 0
X[8,21] 0
X[8,22] 0
X[8,23] 0
X[8,24] 0
X[8,25] 0
X[8,26] 0
X[8,27] 0
X[8,28] 0
X[8,29] 0
X[8,30] 0
X[8,31] 0
X[8,32] 0
X[8,33] 0
X[8,34] 0
X[8,35] 0
X[8,36] 0
X[8,37] 0
X[8,38] 0
X[8,39] 0
X[8,40] 0
X[8,41] 0
X[8,42] 0
X[8,43] 0
X[8,44] 0
X[8,45] 1
X[8,46] 0
X[8,47] 0
X[8,48] 0
X[8,49] 0
X[8,50] 0
X[8,51] 0
X[8,52] 0
X[8,53] 0
X[8,54] 0
X[9,0] 0
X[9,1] 0
X[9,2] 0
X[9,3] 0
X[9,4] 0
X[9,5] 0
X[9,6] 0
X[9,7] 0
X[9,8] 0
X[9,9] 0
X[9,10] 0
X[9,11] 0
X[9,12] 0
X[9,13] 0
X[9,14] 0
X[9,15] 0
X[9,16] 0
X[9,17] 0
X[9,18] 0
X[9,19] 0
X[9,20] 0
X[9,21] 0
X[9,22] 0
X[9,23] 0
X[9,24] 0
X[9,25] 0
X[9,26] 0
X[9,27] 0
X[9,28] 0
X[9,29] 0
X[9,30] 0
X[9,31] 0
X[9,32] 0
X[9,33] 0
X[9,34] 0
X[9,35] 0
X[9,36] 0
X[9,37] 0
X[9,38] 0
X[9,39] 0
X[9,40] 1
X[9,41] 0
X[9,42] 0
X[9,43] 0
X[9,44] 0
X[9,45] 0
X[9,46] 0
X[9,47] 0
X[9,48] 0
X[9,49] 0
X[9,50] 0
X[9,51] 0
X[9,52] 0
X[9,53] 0
X[9,54] 0
X[10,0] 0
X[10,1] 0
X[10,2] 0
X[10,3] 0
X[10,4] 0
X[10,5] 0
X[10,6] 0
X[10,7] 0
X[10,8] 0
X[10,9] 0
X[10,10] 0
X[10,11] 0
X[10,12] 0
X[10,13] 0
X[10,14] 0
X[10,15] 0
X[10,16] 0
X[10,17] 0
X[10,18] 0
X[10,19] 0
X[10,20] 0
X[10,21] 0
X[10,22] 0
X[10,23] 0
X[10,24] 0
X[10,25] 0
X[10,26] 0
X[10,27] 0
X[10,28] 0
X[10,29] 0
X[10,30] 0
X[10,31] 0
X[10,32] 0
X[10,33] 0
X[10,34] 0
X[10,35] 0
X[10,36] 0
X[10,37] 0
X[10,38] 0
X[10,39] 0
X[10,40] 0
X[10,41] 0
X[10,42] 0
X[10,43] 0
X[10,44] 0
X[10,45] 1
X[10,46] 0
X[10,47] 0
X[10,48] 0
X[10,49] 0
X[10,50] 0
X[10,51] 0
X[10,52] 0
X[10,53] 0
X[10,54] 0
X[11,0] 0
X[11,1] 0
X[11,2] 0
X[11,3] 0
X[11,4] 0
X[11,5] 0
X[11,6] 0
X[11,7] 0
X[11,8] 0
X[11,9] 0
X[11,10] 0
X[11,11] 1
X[11,12] 0
X[11,13] 0
X[11,14] 0
X[11,15] 0
X[11,16] 0
X[11,17] 0
X[11,18] 0
X[11,19] 0
X[11,20] 0
X[11,21] 0
X[11,22] 0
X[11,23] 0
X[11,24] 0
X[11,25] 0
X[11,26] 0
X[11,27] 0
X[11,28] 0
X[11,29] 0
X[11,30] 0
X[11,31] 0
X[11,32] 0
X[11,33] 0
X[11,34] 0
X[11,35] 0
X[11,36] 0
X[11,37] 0
X[11,38] 0
X[11,39] 0
X[11,40] 0
X[11,41] 0
X[11,42] 0
X[11,43] 0
X[11,44] 0
X[11,45] 0
X[11,46] 0
X[11,47] 0
X[11,48] 0
X[11,49] 0
X[11,50] 0
X[11,51] 0
X[11,52] 0
X[11,53] 0
X[11,54] 0
X[12,0] 0
X[12,1] 0
X[12,2] 0
X[12,3] 0
X[12,4] 0
X[12,5] 0
X[12,6] 0
X[12,7] 0
X[12,8] 0
X[12,9] 0
X[12,10] 0
X[12,11] 0
X[12,12] 0
X[12,13] 0
X[12,14] 0
X[12,15] 0
X[12,16] 0
X[12,17] 0
X[12,18] 0
X[12,19] 0
X[12,20] 0
X[12,21] 0
X[12,22] 0
X[12,23] 0
X[12,24] 0
X[12,25] 0
X[12,26] 0
X[12,27] 0
X[12,28] 0
X[12,29] 0
X[12,30] 0
X[12,31] 0
X[12,32] 0
X[12,33] 0
X[12,34] 0
X[12,35] 0
X[12,36] 0
X[12,37] 0
X[12,38] 0
X[12,39] 0
X[12,40] 0
X[12,41] 0
X[12,42] 0
X[12,43] 0
X[12,44] 0
X[12,45] 1
X[12,46] 0
X[12,47] 0
X[12,48] 0
X[12,49] 0
X[12,50] 0
X[12,51] 0
X[12,52] 0
X[12,53] 0
X[12,54] 0
X[13,0] 0
X[13,1] 0
X[13,2] 0
X[13,3] 0
X[13,4] 0
X[13,5] 0
X[13,6] 0
X[13,7] 0
X[13,8] 0
X[13,9] 0
X[13,10] 0
X[13,11] 1
X[13,12] 0
X[13,13] 0
X[13,14] 0
X[13,15] 0
X[13,16] 0
X[13,17] 0
X[13,18] 0
X[13,19] 0
X[13,20] 0
X[13,21] 0
X[13,22] 0
X[13,23] 0
X[13,24] 0
X[13,25] 0
X[13,26] 0
X[13,27] 0
X[13,28] 0
X[13,29] 0
X[13,30] 0
X[13,31] 0
X[13,32] 0
X[13,33] 0
X[13,34] 0
X[13,35] 0
X[13,36] 0
X[13,37] 0
X[13,38] 0
X[13,39] 0
X[13,40] 0
X[13,41] 0
X[13,42] 0
X[13,43] 0
X[13,44] 0
X[13,45] 0
X[13,46] 0
X[13,47] 0
X[13,48] 0
X[13,49] 0
X[13,50] 0
X[13,51] 0
X[13,52] 0
X[13,53] 0
X[13,54] 0
X[14,0] 0
X[14,1] 0
X[14,2] 0
X[14,3] 0
X[14,4] 0
X[14,5] 0
X[14,6] 0
X[14,7] 0
X[14,8] 0
X[14,9] 0
X[14,10] 0
X[14,11] 0
X[14,12] 0
X[14,13] 0
X[14,14] 0
X[14,15] 0
X[14,16] 0
X[14,17] 0
X[14,18] 0
X[14,19] 0
X[14,20] 0
X[14,21] 0
X[14,22] 0
X[14,23] 0
X[14,24] 0
X[14,25] 0
X[14,26] 0
X[14,27] 0
X[14,28] 0
X[14,29] 0
X[14,30] 0
X[14,31] 0
X[14,32] 0
X[14,33] 0
X[14,34] 0
X[14,35] 0
X[14,36] 0
X[14,37] 0
X[14,38] 0
X[14,39] 0
X[14,40] 1
X[14,41] 0
X[14,42] 0
X[14,43] 0
X[14,44] 0
X[14,45] 0
X[14,46] 0
X[14,47] 0
X[14,48] 0
X[14,49] 0
X[14,50] 0
X[14,51] 0
X[14,52] 0
X[14,53] 0
X[14,54] 0
X[15,0] 0
X[15,1] 0
X[15,2] 0
X[15,3] 0
X[15,4] 0
X[15,5] 0
X[15,6] 0
X[15,7] 0
X[15,8] 0
X[15,9] 0
X[15,10] 0
X[15,11] 1
X[15,12] 0
X[15,13] 0
X[15,14] 0
X[15,15] 0
X[15,16] 0
X[15,17] 0
X[15,18] 0
X[15,19] 0
X[15,20] 0
X[15,21] 0
X[15,22] 0
X[15,23] 0
X[15,24] 0
X[15,25] 0
X[15,26] 0
X[15,27] 0
X[15,28] 0
X[15,29] 0
X[15,30] 0
X[15,31] 0
X[15,32] 0
X[15,33] 0
X[15,34] 0
X[15,35] 0
X[15,36] 0
X[15,37] 0
X[15,38] 0
X[15,39] 0
X[15,40] 0
X[15,41] 0
X[15,42] 0
X[15,43] 0
X[15,44] 0
X[15,45] 0
X[15,46] 0
X[15,47] 0
X[15,48] 0
X[15,49] 0
X[15,50] 0
X[15,51] 0
X[15,52] 0
X[15,53] 0
X[15,54] 0
X[16,0] 0
X[16,1] 0
X[16,2] 0
X[16,3] 0
X[16,4] 0
X[16,5] 0
X[16,6] 0
X[16,7] 0
X[16,8] 0
X[16,9] 0
X[16,10] 0
X[16,11] 1
X[16,12] 0
X[16,13] 0
X[16,14] 0
X[16,15] 0
X[16,16] 0
X[16,17] 0
X[16,18] 0
X[16,19] 0
X[16,20] 0
X[16,21] 0
X[16,22] 0
X[16,23] 0
X[16,24] 0
X[16,25] 0
X[16,26] 0
X[16,27] 0
X[16,28] 0
X[16,29] 0
X[16,30] 0
X[16,31] 0
X[16,32] 0
X[16,33] 0
X[16,34] 0
X[16,35] 0
X[16,36] 0
X[16,37] 0
X[16,38] 0
X[16,39] 0
X[16,40] 0
X[16,41] 0
X[16,42] 0
X[16,43] 0
X[16,44] 0
X[16,45] 0
X[16,46] 0
X[16,47] 0
X[16,48] 0
X[16,49] 0
X[16,50] 0
X[16,51] 0
X[16,52] 0
X[16,53] 0
X[16,54] 0
X[17,0] 0
X[17,1] 0
X[17,2] 0
X[17,3] 0
X[17,4] 0
X[17,5] 0
X[17,6] 0
X[17,7] 0
X[17,8] 0
X[17,9] 0
X[17,10] 0
X[17,11] 0
X[17,12] 0
X[17,13] 0
X[17,14] 0
X[17,15] 0
X[17,16] 0
X[17,17] 0
X[17,18] 0
X[17,19] 0
X[17,20] 0
X[17,21] 0
X[17,22] 0
X[17,23] 0
X[17,24] 0
X[17,25] 0
X[17,26] 0
X[17,27] 0
X[17,28] 0
X[17,29] 0
X[17,30] 0
X[17,31] 0
X[17,32] 0
X[17,33] 0
X[17,34] 0
X[17,35] 0
X[17,36] 0
X[17,37] 0
X[17,38] 0
X[17,39] 0
X[17,40] 1
X[17,41] 0
X[17,42] 0
X[17,43] 0
X[17,44] 0
X[17,45] 0
X[17,46] 0
X[17,47] 0
X[17,48] 0
X[17,49] 0
X[17,50] 0
X[17,51] 0
X[17,52] 0
X[17,53] 0
X[17,54] 0
X[18,0] 0
X[18,1] 0
X[18,2] 0
X[18,3] 0
X[18,4] 0
X[18,5] 0
X[18,6] 0
X[18,7] 0
X[18,8] 0
X[18,9] 0
X[18,10] 0
X[18,11] 1
X[18,12] 0
X[18,13] 0
X[18,14] 0
X[18,15] 0
X[18,16] 0
X[18,17] 0
X[18,18] 0
X[18,19] 0
X[18,20] 0
X[18,21] 0
X[18,22] 0
X[18,23] 0
X[18,24] 0
X[18,25] 0
X[18,26] 0
X[18,27] 0
X[18,28] 0
X[18,29] 0
X[18,30] 0
X[18,31] 0
X[18,32] 0
X[18,33] 0
X[18,34] 0
X[18,35] 0
X[18,36] 0
X[18,37] 0
X[18,38] 0
X[18,39] 0
X[18,40] 0
X[18,41] 0
X[18,42] 0
X[18,43] 0
X[18,44] 0
X[18,45] 0
X[18,46] 0
X[18,47] 0
X[18,48] 0
X[18,49] 0
X[18,50] 0
X[18,51] 0
X[18,52] 0
X[18,53] 0
X[18,54] 0
X[19,0] 0
X[19,1] 0
X[19,2] 0
X[19,3] 0
X[19,4] 0
X[19,5] 0
X[19,6] 0
X[19,7] 0
X[19,8] 0
X[19,9] 0
X[19,10] 0
X[19,11] 0
X[19,12] 0
X[19,13] 0
X[19,14] 0
X[19,15] 0
X[19,16] 0
X[19,17] 0
X[19,18] 0
X[19,19] 0
X[19,20] 0
X[19,21] 0
X[19,22] 0
X[19,23] 0
X[19,24] 0
X[19,25] 0
X[19,26] 0
X[19,27] 0
X[19,28] 0
X[19,29] 0
X[19,30] 0
X[19,31] 0
X[19,32] 0
X[19,33] 0
X[19,34] 0
X[19,35] 0
X[19,36] 0
X[19,37] 0
X[19,38] 0
X[19,39] 0
X[19,40] 1
X[19,41] 0
X[19,42] 0
X[19,43] 0
X[19,44] 0
X[19,45] 0
X[19,46] 0
X[19,47] 0
X[19,48] 0
X[19,49] 0
X[19,50] 0
X[19,51] 0
X[19,52] 0
X[19,53] 0
X[19,54] 0
X[20,0] 0
X[20,1] 0
X[20,2] 0
X[20,3] 0
X[20,4] 0
X[20,5] 0
X[20,6] 0
X[20,7] 0
X[20,8] 0
X[20,9] 0
X[20,10] 0
X[20,11] 0
X[20,12] 0
X[20,13] 0
X[20,14] 0
X[20,15] 0
X[20,16] 0
X[20,17] 0
X[20,18] 0
X[20,19] 0
X[20,20] 0
X[20,21] 0
X[20,22] 0
X[20,23] 0
X[20,24] 0
X[20,25] 0
X[20,26] 0
X[20,27] 0
X[20,28] 0
X[20,29] 0
X[20,30] 0
X[20,31] 0
X[20,32] 0
X[20,33] 0
X[20,34] 0
X[20,35] 0
X[20,36] 0
X[20,37] 0
X[20,38] 0
X[20,39] 0
X[20,40] 1
X[20,41] 0
X[20,42] 0
X[20,43] 0
X[20,44] 0
X[20,45] 0
X[20,46] 0
X[20,47] 0
X[20,48] 0
X[20,49] 0
X[20,50] 0
X[20,51] 0
X[20,52] 0
X[20,53] 0
X[20,54] 0
X[21,0] 0
X[21,1] 0
X[21,2] 0
X[21,3] 0
X[21,4] 0
X[21,5] 0
X[21,6] 0
X[21,7] 0
X[21,8] 0
X[21,9] 0
X[21,10] 0
X[21,11] 1
X[21,12] 0
X[21,13] 0
X[21,14] 0
X[21,15] 0
X[21,16] 0
X[21,17] 0
X[21,18] 0
X[21,19] 0
X[21,20] 0
X[21,21] 0
X[21,22] 0
X[21,23] 0
X[21,24] 0
X[21,25] 0
X[21,26] 0
X[21,27] 0
X[21,28] 0
X[21,29] 0
X[21,30] 0
X[21,31] 0
X[21,32] 0
X[21,33] 0
X[21,34] 0
X[21,35] 0
X[21,36] 0
X[21,37] 0
X[21,38] 0
X[21,39] 0
X[21,40] 0
X[21,41] 0
X[21,42] 0
X[21,43] 0
X[21,44] 0
X[21,45] 0
X[21,46] 0
X[21,47] 0
X[21,48] 0
X[21,49] 0
X[21,50] 0
X[21,51] 0
X[21,52] 0
X[21,53] 0
X[21,54] 0
X[22,0] 0
X[22,1] 0
X[22,2] 0
X[22,3] 0
X[22,4] 0
X[22,5] 0
X[22,6] 0
X[22,7] 0
X[22,8] 0
X[22,9] 0
X[22,10] 0
X[22,11] 1
X[22,12] 0
X[22,13] 0
X[22,14] 0
X[22,15] 0
X[22,16] 0
X[22,17] 0
X[22,18] 0
X[22,19] 0
X[22,20] 0
X[22,21] 0
X[22,22] 0
X[22,23] 0
X[22,24] 0
X[22,25] 0
X[22,26] 0
X[22,27] 0
X[22,28] 0
X[22,29] 0
X[22,30] 0
X[22,31] 0
X[22,32] 0
X[22,33] 0
X[22,34] 0
X[22,35] 0
X[22,36] 0
X[22,37] 0
X[22,38] 0
X[22,39] 0
X[22,40] 0
X[22,41] 0
X[22,42] 0
X[22,43] 0
X[22,44] 0
X[22,45] 0
X[22,46] 0
X[22,47] 0
X[22,48] 0
X[22,49] 0
X[22,50] 0
X[22,51] 0
X[22,52] 0
X[22,53] 0
X[22,54] 0
X[23,0] 0
X[23,1] 0
X[23,2] 0
X[23,3] 0
X[23,4] 0
X[23,5] 0
X[23,6] 0
X[23,7] 0
X[23,8] 0
X[23,9] 0
X[23,10] 0
X[23,11] 0
X[23,12] 0
X[23,13] 0
X[23,14] 0
X[23,15] 0
X[23,16] 0
X[23,17] 0
X[23,18] 0
X[23,19] 0
X[23,20] 0
X[23,21] 0
X[23,22] 0
X[23,23] 0
X[23,24] 0
X[23,25] 0
X[23,26] 0
X[23,27] 0
X[23,28] 0
X[23,29] 0
X[23,30] 0
X[23,31] 0
X[23,32] 0
X[23,33] 0
X[23,34] 0
X[23,35] 0
X[23,36] 0
X[23,37] 0
X[23,38] 0
X[23,39] 0
X[23,40] 1
X[23,41] 0
X[23,42] 0
X[23,43] 0
X[23,44] 0
X[23,45] 0
X[23,46] 0
X[23,47] 0
X[23,48] 0
X[23,49] 0
X[23,50] 0
X[23,51] 0
X[23,52] 0
X[23,53] 0
X[23,54] 0
X[24,0] 0
X[24,1] 0
X[24,2] 0
X[24,3] 0
X[24,4] 0
X[24,5] 0
X[24,6] 0
X[24,7] 0
X[24,8] 0
X[24,9] 0
X[24,10] 0
X[24,11] 0
X[24,12] 0
X[24,13] 0
X[24,14] 0
X[24,15] 0
X[24,16] 0
X[24,17] 0
X[24,18] 0
X[24,19] 0
X[24,20] 0
X[24,21] 0
X[24,22] 0
X[24,23] 0
X[24,24] 0
X[24,25] 0
X[24,26] 0
X[24,27] 0
X[24,28] 0
X[24,29] 0
X[24,30] 0
X[24,31] 0
X[24,32] 0
X[24,33] 0
X[24,34] 0
X[24,35] 0
X[24,36] 0
X[24,37] 0
X[24,38] 0
X[24,39] 0
X[24,40] 1
X[24,41] 0
X[24,42] 0
X[24,43] 0
X[24,44] 0
X[24,45] 0
X[24,46] 0
X[24,47] 0
X[24,48] 0
X[24,49] 0
X[24,50] 0
X[24,51] 0
X[24,52] 0
X[24,53] 0
X[24,54] 0
X[25,0] 0
X[25,1] 0
X[25,2] 0
X[25,3] 0
X[25,4] 0
X[25,5] 0
X[25,6] 0
X[25,7] 0
X[25,8] 0
X[25,9] 0
X[25,10] 0
X[25,11] 0
X[25,12] 0
X[25,13] 0
X[25,14] 0
X[25,15] 0
X[25,16] 0
X[25,17] 0
X[25,18] 0
X[25,19] 0
X[25,20] 0
X[25,21] 0
X[25,22] 0
X[25,23] 0
X[25,24] 0
X[25,25] 0
X[25,26] 0
X[25,27] 0
X[25,28] 0
X[25,29] 0
X[25,30] 0
X[25,31] 0
X[25,32] 0
X[25,33] 0
X[25,34] 0
X[25,35] 0
X[25,36] 0
X[25,37] 0
X[25,38] 0
X[25,39] 0
X[25,40] 1
X[25,41] 0
X[25,42] 0
X[25,43] 0
X[25,44] 0
X[25,45] 0
X[25,46] 0
X[25,47] 0
X[25,48] 0
X[25,49] 0
X[25,50] 0
X[25,51] 0
X[25,52] 0
X[25,53] 0
X[25,54] 0
X[26,0] 0
X[26,1] 0
X[26,2] 0
X[26,3] 0
X[26,4] 0
X[26,5] 0
X[26,6] 0
X[26,7] 0
X[26,8] 0
X[26,9] 0
X[26,10] 0
X[26,11] 1
X[26,12] 0
X[26,13] 0
X[26,14] 0
X[26,15] 0
X[26,16] 0
X[26,17] 0
X[26,18] 0
X[26,19] 0
X[26,20] 0
X[26,21] 0
X[26,22] 0
X[26,23] 0
X[26,24] 0
X[26,25] 0
X[26,26] 0
X[26,27] 0
X[26,28] 0
X[26,29] 0
X[26,30] 0
X[26,31] 0
X[26,32] 0
X[26,33] 0
X[26,34] 0
X[26,35] 0
X[26,36] 0
X[26,37] 0
X[26,38] 0
X[26,39] 0
X[26,40] 0
X[26,41] 0
X[26,42] 0
X[26,43] 0
X[26,44] 0
X[26,45] 0
X[26,46] 0
X[26,47] 0
X[26,48] 0
X[26,49] 0
X[26,50] 0
X[26,51] 0
X[26,52] 0
X[26,53] 0
X[26,54] 0
X[27,0] 0
X[27,1] 0
X[27,2] 0
X[27,3] 0
X[27,4] 0
X[27,5] 0
X[27,6] 0
X[27,7] 0
X[27,8] 0
X[27,9] 0
X[27,10] 0
X[27,11] 1
X[27,12] 0
X[27,13] 0
X[27,14] 0
X[27,15] 0
X[27,16] 0
X[27,17] 0
X[27,18] 0
X[27,19] 0
X[27,20] 0
X[27,21] 0
X[27,22] 0
X[27,23] 0
X[27,24] 0
X[27,25] 0
X[27,26] 0
X[27,27] 0
X[27,28] 0
X[27,29] 0
X[27,30] 0
X[27,31] 0
X[27,32] 0
X[27,33] 0
X[27,34] 0
X[27,35] 0
X[27,36] 0
X[27,37] 0
X[27,38] 0
X[27,39] 0
X[27,40] 0
X[27,41] 0
X[27,42] 0
X[27,43] 0
X[27,44] 0
X[27,45] 0
X[27,46] 0
X[27,47] 0
X[27,48] 0
X[27,49] 0
X[27,50] 0
X[27,51] 0
X[27,52] 0
X[27,53] 0
X[27,54] 0
X[28,0] 0
X[28,1] 0
X[28,2] 0
X[28,3] 0
X[28,4] 0
X[28,5] 0
X[28,6] 0
X[28,7] 0
X[28,8] 0
X[28,9] 0
X[28,10] 0
X[28,11] 0
X[28,12] 0
X[28,13] 0
X[28,14] 0
X[28,15] 0
X[28,16] 0
X[28,17] 0
X[28,18] 0
X[28,19] 0
X[28,20] 0
X[28,21] 0
X[28,22] 0
X[28,23] 0
X[28,24] 0
X[28,25] 0
X[28,26] 0
X[28,27] 0
X[28,28] 0
X[28,29] 0
X[28,30] 0
X[28,31] 0
X[28,32] 0
X[28,33] 0
X[28,34] 0
X[28,35] 0
X[28,36] 0
X[28,37] 0
X[28,38] 0
X[28,39] 0
X[28,40] 1
X[28,41] 0
X[28,42] 0
X[28,43] 0
X[28,44] 0
X[28,45] 0
X[28,46] 0
X[28,47] 0
X[28,48] 0
X[28,49] 0
X[28,50] 0
X[28,51] 0
X[28,52] 0
X[28,53] 0
X[28,54] 0
X[29,0] 0
X[29,1] 0
X[29,2] 0
X[29,3] 0
X[29,4] 0
X[29,5] 0
X[29,6] 0
X[29,7] 0
X[29,8] 0
X[29,9] 0
X[29,10] 0
X[29,11] 0
X[29,12] 0
X[29,13] 0
X[29,14] 0
X[29,15] 0
X[29,16] 0
X[29,17] 0
X[29,18] 0
X[29,19] 0
X[29,20] 0
X[29,21] 0
X[29,22] 0
X[29,23] 0
X[29,24] 0
X[29,25] 0
X[29,26] 0
X[29,27] 0
X[29,28] 0
X[29,29] 0
X[29,30] 0
X[29,31] 0
X[29,32] 0
X[29,33] 0
X[29,34] 0
X[29,35] 0
X[29,36] 0
X[29,37] 0
X[29,38] 0
X[29,39] 0
X[29,40] 0
X[29,41] 0
X[29,42] 0
X[29,43] 0
X[29,44] 0
X[29,45] 1
X[29,46] 0
X[29,47] 0
X[29,48] 0
X[29,49] 0
X[29,50] 0
X[29,51] 0
X[29,52] 0
X[29,53] 0
X[29,54] 0
X[30,0] 0
X[30,1] 0
X[30,2] 0
X[30,3] 0
X[30,4] 0
X[30,5] 0
X[30,6] 0
X[30,7] 0
X[30,8] 0
X[30,9] 0
X[30,10] 0
X[30,11] 0
X[30,12] 0
X[30,13] 0
X[30,14] 0
X[30,15] 0
X[30,16] 0
X[30,17] 0
X[30,18] 0
X[30,19] 0
X[30,20] 0
X[30,21] 0
X[30,22] 0
X[30,23] 0
X[30,24] 0
X[30,25] 0
X[30,26] 0
X[30,27] 0
X[30,28] 0
X[30,29] 0
X[30,30] 0
X[30,31] 0
X[30,32] 0
X[30,33] 0
X[30,34] 0
X[30,35] 0
X[30,36] 0
X[30,37] 0
X[30,38] 0
X[30,39] 0
X[30,40] 1
X[30,41] 0
X[30,42] 0
X[30,43] 0
X[30,44] 0
X[30,45] 0
X[30,46] 0
X[30,47] 0
X[30,48] 0
X[30,49] 0
X[30,50] 0
X[30,51] 0
X[30,52] 0
X[30,53] 0
X[30,54] 0
X[31,0] 0
X[31,1] 0
X[31,2] 0
X[31,3] 0
X[31,4] 0
X[31,5] 0
X[31,6] 0
X[31,7] 0
X[31,8] 0
X[31,9] 0
X[31,10] 0
X[31,11] 0
X[31,12] 0
X[31,13] 0
X[31,14] 0
X[31,15] 0
X[31,16] 0
X[31,17] 0
X[31,18] 0
X[31,19] 0
X[31,20] 0
X[31,21] 0
X[31,22] 0
X[31,23] 0
X[31,24] 0
X[31,25] 0
X[31,26] 0
X[31,27] 0
X[31,28] 0
X[31,29] 0
X[31,30] 0
X[31,31] 0
X[31,32] 0
X[31,33] 0
X[31,34] 0
X[31,35] 0
X[31,36] 0
X[31,37] 0
X[31,38] 0
X[31,39] 0
X[31,40] 0
X[31,41] 0
X[31,42] 0
X[31,43] 0
X[31,44] 0
X[31,45] 1
X[31,46] 0
X[31,47] 0
X[31,48] 0
X[31,49] 0
X[31,50] 0
X[31,51] 0
X[31,52] 0
X[31,53] 0
X[31,54] 0
X[32,0] 0
X[32,1] 0
X[32,2] 0
X[32,3] 0
X[32,4] 0
X[32,5] 0
X[32,6] 0
X[32,7] 0
X[32,8] 0
X[32,9] 0
X[32,10] 0
X[32,11] 1
X[32,12] 0
X[32,13] 0
X[32,14] 0
X[32,15] 0
X[32,16] 0
X[32,17] 0
X[32,18] 0
X[32,19] 0
X[32,20] 0
X[32,21] 0
X[32,22] 0
X[32,23] 0
X[32,24] 0
X[32,25] 0
X[32,26] 0
X[32,27] 0
X[32,28] 0
X[32,29] 0
X[32,30] 0
X[32,31] 0
X[32,32] 0
X[32,33] 0
X[32,34] 0
X[32,35] 0
X[32,36] 0
X[32,37] 0
X[32,38] 0
X[32,39] 0
X[32,40] 0
X[32,41] 0
X[32,42] 0
X[32,43] 0
X[32,44] 0
X[32,45] 0
X[32,46] 0
X[32,47] 0
X[32,48] 0
X[32,49] 0
X[32,50] 0
X[32,51] 0
X[32,52] 0
X[32,53] 0
X[32,54] 0
X[33,0] 0
X[33,1] 0
X[33,2] 0
X[33,3] 0
X[33,4] 0
X[33,5] 0
X[33,6] 0
X[33,7] 0
X[33,8] 0
X[33,9] 0
X[33,10] 0
X[33,11] 0
X[33,12] 0
X[33,13] 0
X[33,14] 0
X[33,15] 0
X[33,16] 0
X[33,17] 0
X[33,18] 0
X[33,19] 0
X[33,20] 0
X[33,21] 0
X[33,22] 0
X[33,23] 0
X[33,24] 0
X[33,25] 0
X[33,26] 0
X[33,27] 0
X[33,28] 0
X[33,29] 0
X[33,30] 0
X[33,31] 0
X[33,32] 0
X[33,33] 0
X[33,34] 0
X[33,35] 0
X[33,36] 0
X[33,37] 0
X[33,38] 0
X[33,39] 0
X[33,40] 0
X[33,41] 0
X[33,42] 0
X[33,43] 0
X[33,44] 0
X[33,45] 1
X[33,46] 0
X[33,47] 0
X[33,48] 0
X[33,49] 0
X[33,50] 0
X[33,51] 0
X[33,52] 0
X[33,53] 0
X[33,54] 0
X[34,0] 0
X[34,1] 0
X[34,2] 0
X[34,3] 0
X[34,4] 0
X[34,5] 0
X[34,6] 0
X[34,7] 0
X[34,8] 0
X[34,9] 0
X[34,10] 0
X[34,11] 0
X[34,12] 0
X[34,13] 0
X[34,14] 0
X[34,15] 0
X[34,16] 0
X[34,17] 0
X[34,18] 0
X[34,19] 0
X[34,20] 0
X[34,21] 0
X[34,22] 0
X[34,23] 0
X[34,24] 0
X[34,25] 0
X[34,26] 0
X[34,27] 0
X[34,28] 0
X[34,29] 0
X[34,30] 0
X[34,31] 0
X[34,32] 0
X[34,33] 0
X[34,34] 0
X[34,35] 0
X[34,36] 0
X[34,37] 0
X[34,38] 0
X[34,39] 0
X[34,40] 1
X[34,41] 0
X[34,42] 0
X[34,43] 0
X[34,44] 0
X[34,45] 0
X[34,46] 0
X[34,47] 0
X[34,48] 0
X[34,49] 0
X[34,50] 0
X[34,51] 0
X[34,52] 0
X[34,53] 0
X[34,54] 0
X[35,0] 0
X[35,1] 0
X[35,2] 0
X[35,3] 0
X[35,4] 0
X[35,5] 0
X[35,6] 0
X[35,7] 0
X[35,8] 0
X[35,9] 0
X[35,10] 0
X[35,11] 0
X[35,12] 0
X[35,13] 0
X[35,14] 0
X[35,15] 0
X[35,16] 0
X[35,17] 0
X[35,18] 0
X[35,19] 0
X[35,20] 0
X[35,21] 0
X[35,22] 0
X[35,23] 0
X[35,24] 0
X[35,25] 0
X[35,26] 0
X[35,27] 0
X[35,28] 0
X[35,29] 0
X[35,30] 0
X[35,31] 0
X[35,32] 0
X[35,33] 0
X[35,34] 0
X[35,35] 0
X[35,36] 0
X[35,37] 0
X[35,38] 0
X[35,39] 0
X[35,40] 1
X[35,41] 0
X[35,42] 0
X[35,43] 0
X[35,44] 0
X[35,45] 0
X[35,46] 0
X[35,47] 0
X[35,48] 0
X[35,49] 0
X[35,50] 0
X[35,51] 0
X[35,52] 0
X[35,53] 0
X[35,54] 0
X[36,0] 0
X[36,1] 0
X[36,2] 0
X[36,3] 0
X[36,4] 0
X[36,5] 0
X[36,6] 0
X[36,7] 0
X[36,8] 0
X[36,9] 0
X[36,10] 0
X[36,11] 0
X[36,12] 0
X[36,13] 0
X[36,14] 0
X[36,15] 0
X[36,16] 0
X[36,17] 0
X[36,18] 0
X[36,19] 0
X[36,20] 0
X[36,21] 0
X[36,22] 0
X[36,23] 0
X[36,24] 0
X[36,25] 0
X[36,26] 0
X[36,27] 0
X[36,28] 0
X[36,29] 0
X[36,30] 0
X[36,31] 0
X[36,32] 0
X[36,33] 0
X[36,34] 0
X[36,35] 0
X[36,36] 0
X[36,37] 0
X[36,38] 0
X[36,39] 0
X[36,40] 1
X[36,41] 0
X[36,42] 0
X[36,43] 0
X[36,44] 0
X[36,45] 0
X[36,46] 0
X[36,47] 0
X[36,48] 0
X[36,49] 0
X[36,50] 0
X[36,51] 0
X[36,52] 0
X[36,53] 0
X[36,54] 0
X[37,0] 0
X[37,1] 0
X[37,2] 0
X[37,3] 0
X[37,4] 0
X[37,5] 0
X[37,6] 0
X[37,7] 0
X[37,8] 0
X[37,9] 0
X[37,10] 0
X[37,11] 0
X[37,12] 0
X[37,13] 0
X[37,14] 0
X[37,15] 0
X[37,16] 0
X[37,17] 0
X[37,18] 0
X[37,19] 0
X[37,20] 0
X[37,21] 0
X[37,22] 0
X[37,23] 0
X[37,24] 0
X[37,25] 0
X[37,26] 0
X[37,27] 0
X[37,28] 0
X[37,29] 0
X[37,30] 0
X[37,31] 0
X[37,32] 0
X[37,33] 0
X[37,34] 0
X[37,35] 0
X[37,36] 0
X[37,37] 0
X[37,38] 0
X[37,39] 0
X[37,40] 0
X[37,41] 0
X[37,42] 0
X[37,43] 0
X[37,44] 0
X[37,45] 1
X[37,46] 0
X[37,47] 0
X[37,48] 0
X[37,49] 0
X[37,50] 0
X[37,51] 0
X[37,52] 0
X[37,53] 0
X[37,54] 0
X[38,0] 0
X[38,1] 0
X[38,2] 0
X[38,3] 0
X[38,4] 0
X[38,5] 0
X[38,6] 0
X[38,7] 0
X[38,8] 0
X[38,9] 0
X[38,10] 0
X[38,11] 0
X[38,12] 0
X[38,13] 0
X[38,14] 0
X[38,15] 0
X[38,16] 0
X[38,17] 0
X[38,18] 0
X[38,19] 0
X[38,20] 0
X[38,21] 0
X[38,22] 0
X[38,23] 0
X[38,24] 0
X[38,25] 0
X[38,26] 0
X[38,27] 0
X[38,28] 0
X[38,29] 0
X[38,30] 0
X[38,31] 0
X[38,32] 0
X[38,33] 0
X[38,34] 0
X[38,35] 0
X[38,36] 0
X[38,37] 0
X[38,38] 0
X[38,39] 0
X[38,40] 0
X[38,41] 0
X[38,42] 0
X[38,43] 0
X[38,44] 0
X[38,45] 1
X[38,46] 0
X[38,47] 0
X[38,48] 0
X[38,49] 0
X[38,50] 0
X[38,51] 0
X[38,52] 0
X[38,53] 0
X[38,54] 0
X[39,0] 0
X[39,1] 0
X[39,2] 0
X[39,3] 0
X[39,4] 0
X[39,5] 0
X[39,6] 0
X[39,7] 0
X[39,8] 0
X[39,9] 0
X[39,10] 0
X[39,11] 0
X[39,12] 0
X[39,13] 0
X[39,14] 0
X[39,15] 0
X[39,16] 0
X[39,17] 0
X[39,18] 0
X[39,19] 0
X[39,20] 0
X[39,21] 0
X[39,22] 0
X[39,23] 0
X[39,24] 0
X[39,25] 0
X[39,26] 0
X[39,27] 0
X[39,28] 0
X[39,29] 0
X[39,30] 0
X[39,31] 0
X[39,32] 0
X[39,33] 0
X[39,34] 0
X[39,35] 0
X[39,36] 0
X[39,37] 0
X[39,38] 0
X[39,39] 0
X[39,40] 0
X[39,41] 0
X[39,42] 0
X[39,43] 0
X[39,44] 0
X[39,45] 1
X[39,46] 0
X[39,47] 0
X[39,48] 0
X[39,49] 0
X[39,50] 0
X[39,51] 0
X[39,52] 0
X[39,53] 0
X[39,54] 0
X[40,0] 0
X[40,1] 0
X[40,2] 0
X[40,3] 0
X[40,4] 0
X[40,5] 0
X[40,6] 0
X[40,7] 0
X[40,8] 0
X[40,9] 0
X[40,10] 0
X[40,11] 0
X[40,12] 0
X[40,13] 0
X[40,14] 0
X[40,15] 0
X[40,16] 0
X[40,17] 0
X[40,18] 0
X[40,19] 0
X[40,20] 0
X[40,21] 0
X[40,22] 0
X[40,23] 0
X[40,24] 0
X[40,25] 0
X[40,26] 0
X[40,27] 0
X[40,28] 0
X[40,29] 0
X[40,30] 0
X[40,31] 0
X[40,32] 0
X[40,33] 0
X[40,34] 0
X[40,35] 0
X[40,36] 0
X[40,37] 0
X[40,38] 0
X[40,39] 0
X[40,40] 1
X[40,41] 0
X[40,42] 0
X[40,43] 0
X[40,44] 0
X[40,45] 0
X[40,46] 0
X[40,47] 0
X[40,48] 0
X[40,49] 0
X[40,50] 0
X[40,51] 0
X[40,52] 0
X[40,53] 0
X[40,54] 0
X[41,0] 0
X[41,1] 0
X[41,2] 0
X[41,3] 0
X[41,4] 0
X[41,5] 0
X[41,6] 0
X[41,7] 0
X[41,8] 0
X[41,9] 0
X[41,10] 0
X[41,11] 0
X[41,12] 0
X[41,13] 0
X[41,14] 0
X[41,15] 0
X[41,16] 0
X[41,17] 0
X[41,18] 0
X[41,19] 0
X[41,20] 0
X[41,21] 0
X[41,22] 0
X[41,23] 0
X[41,24] 0
X[41,25] 0
X[41,26] 0
X[41,27] 0
X[41,28] 0
X[41,29] 0
X[41,30] 0
X[41,31] 0
X[41,32] 0
X[41,33] 0
X[41,34] 0
X[41,35] 0
X[41,36] 0
X[41,37] 0
X[41,38] 0
X[41,39] 0
X[41,40] 1
X[41,41] 0
X[41,42] 0
X[41,43] 0
X[41,44] 0
X[41,45] 0
X[41,46] 0
X[41,47] 0
X[41,48] 0
X[41,49] 0
X[41,50] 0
X[41,51] 0
X[41,52] 0
X[41,53] 0
X[41,54] 0
X[42,0] 0
X[42,1] 0
X[42,2] 0
X[42,3] 0
X[42,4] 0
X[42,5] 0
X[42,6] 0
X[42,7] 0
X[42,8] 0
X[42,9] 0
X[42,10] 0
X[42,11] 0
X[42,12] 0
X[42,13] 0
X[42,14] 0
X[42,15] 0
X[42,16] 0
X[42,17] 0
X[42,18] 0
X[42,19] 0
X[42,20] 0
X[42,21] 0
X[42,22] 0
X[42,23] 0
X[42,24] 0
X[42,25] 0
X[42,26] 0
X[42,27] 0
X[42,28] 0
X[42,29] 0
X[42,30] 0
X[42,31] 0
X[42,32] 0
X[42,33] 0
X[42,34] 0
X[42,35] 0
X[42,36] 0
X[42,37] 0
X[42,38] 0
X[42,39] 0
X[42,40] 0
X[42,41] 0
X[42,42] 0
X[42,43] 0
X[42,44] 0
X[42,45] 1
X[42,46] 0
X[42,47] 0
X[42,48] 0
X[42,49] 0
X[42,50] 0
X[42,51] 0
X[42,52] 0
X[42,53] 0
X[42,54] 0
X[43,0] 0
X[43,1] 0
X[43,2] 0
X[43,3] 0
X[43,4] 0
X[43,5] 0
X[43,6] 0
X[43,7] 0
X[43,8] 0
X[43,9] 0
X[43,10] 0
X[43,11] 0
X[43,12] 0
X[43,13] 0
X[43,14] 0
X[43,15] 0
X[43,16] 0
X[43,17] 0
X[43,18] 0
X[43,19] 0
X[43,20] 0
X[43,21] 0
X[43,22] 0
X[43,23] 0
X[43,24] 0
X[43,25] 0
X[43,26] 0
X[43,27] 0
X[43,28] 0
X[43,29] 0
X[43,30] 0
X[43,31] 0
X[43,32] 0
X[43,33] 0
X[43,34] 0
X[43,35] 0
X[43,36] 0
X[43,37] 0
X[43,38] 0
X[43,39] 0
X[43,40] 0
X[43,41] 0
X[43,42] 0
X[43,43] 0
X[43,44] 0
X[43,45] 1
X[43,46] 0
X[43,47] 0
X[43,48] 0
X[43,49] 0
X[43,50] 0
X[43,51] 0
X[43,52] 0
X[43,53] 0
X[43,54] 0
X[44,0] 0
X[44,1] 0
X[44,2] 0
X[44,3] 0
X[44,4] 0
X[44,5] 0
X[44,6] 0
X[44,7] 0
X[44,8] 0
X[44,9] 0
X[44,10] 0
X[44,11] 0
X[44,12] 0
X[44,13] 0
X[44,14] 0
X[44,15] 0
X[44,16] 0
X[44,17] 0
X[44,18] 0
X[44,19] 0
X[44,20] 0
X[44,21] 0
X[44,22] 0
X[44,23] 0
X[44,24] 0
X[44,25] 0
X[44,26] 0
X[44,27] 0
X[44,28] 0
X[44,29] 0
X[44,30] 0
X[44,31] 0
X[44,32] 0
X[44,33] 0
X[44,34] 0
X[44,35] 0
X[44,36] 0
X[44,37] 0
X[44,38] 0
X[44,39] 0
X[44,40] 0
X[44,41] 0
X[44,42] 0
X[44,43] 0
X[44,44] 0
X[44,45] 1
X[44,46] 0
X[44,47] 0
X[44,48] 0
X[44,49] 0
X[44,50] 0
X[44,51] 0
X[44,52] 0
X[44,53] 0
X[44,54] 0
X[45,0] 0
X[45,1] 0
X[45,2] 0
X[45,3] 0
X[45,4] 0
X[45,5] 0
X[45,6] 0
X[45,7] 0
X[45,8] 0
X[45,9] 0
X[45,10] 0
X[45,11] 0
X[45,12] 0
X[45,13] 0
X[45,14] 0
X[45,15] 0
X[45,16] 0
X[45,17] 0
X[45,18] 0
X[45,19] 0
X[45,20] 0
X[45,21] 0
X[45,22] 0
X[45,23] 0
X[45,24] 0
X[45,25] 0
X[45,26] 0
X[45,27] 0
X[45,28] 0
X[45,29] 0
X[45,30] 0
X[45,31] 0
X[45,32] 0
X[45,33] 0
X[45,34] 0
X[45,35] 0
X[45,36] 0
X[45,37] 0
X[45,38] 0
X[45,39] 0
X[45,40] 0
X[45,41] 0
X[45,42] 0
X[45,43] 0
X[45,44] 0
X[45,45] 1
X[45,46] 0
X[45,47] 0
X[45,48] 0
X[45,49] 0
X[45,50] 0
X[45,51] 0
X[45,52] 0
X[45,53] 0
X[45,54] 0
X[46,0] 0
X[46,1] 0
X[46,2] 0
X[46,3] 0
X[46,4] 0
X[46,5] 0
X[46,6] 0
X[46,7] 0
X[46,8] 0
X[46,9] 0
X[46,10] 0
X[46,11] 0
X[46,12] 0
X[46,13] 0
X[46,14] 0
X[46,15] 0
X[46,16] 0
X[46,17] 0
X[46,18] 0
X[46,19] 0
X[46,20] 0
X[46,21] 0
X[46,22] 0
X[46,23] 0
X[46,24] 0
X[46,25] 0
X[46,26] 0
X[46,27] 0
X[46,28] 0
X[46,29] 0
X[46,30] 0
X[46,31] 0
X[46,32] 0
X[46,33] 0
X[46,34] 0
X[46,35] 0
X[46,36] 0
X[46,37] 0
X[46,38] 0
X[46,39] 0
X[46,40] 0
X[46,41] 0
X[46,42] 0
X[46,43] 0
X[46,44] 0
X[46,45] 1
X[46,46] 0
X[46,47] 0
X[46,48] 0
X[46,49] 0
X[46,50] 0
X[46,51] 0
X[46,52] 0
X[46,53] 0
X[46,54] 0
X[47,0] 0
X[47,1] 0
X[47,2] 0
X[47,3] 0
X[47,4] 0
X[47,5] 0
X[47,6] 0
X[47,7] 0
X[47,8] 0
X[47,9] 0
X[47,10] 0
X[47,11] 0
X[47,12] 0
X[47,13] 0
X[47,14] 0
X[47,15] 0
X[47,16] 0
X[47,17] 0
X[47,18] 0
X[47,19] 0
X[47,20] 0
X[47,21] 0
X[47,22] 0
X[47,23] 0
X[47,24] 0
X[47,25] 0
X[47,26] 0
X[47,27] 0
X[47,28] 0
X[47,29] 0
X[47,30] 0
X[47,31] 0
X[47,32] 0
X[47,33] 0
X[47,34] 0
X[47,35] 0
X[47,36] 0
X[47,37] 0
X[47,38] 0
X[47,39] 0
X[47,40] 1
X[47,41] 0
X[47,42] 0
X[47,43] 0
X[47,44] 0
X[47,45] 0
X[47,46] 0
X[47,47] 0
X[47,48] 0
X[47,49] 0
X[47,50] 0
X[47,51] 0
X[47,52] 0
X[47,53] 0
X[47,54] 0
X[48,0] 0
X[48,1] 0
X[48,2] 0
X[48,3] 0
X[48,4] 0
X[48,5] 0
X[48,6] 0
X[48,7] 0
X[48,8] 0
X[48,9] 0
X[48,10] 0
X[48,11] 0
X[48,12] 0
X[48,13] 0
X[48,14] 0
X[48,15] 0
X[48,16] 0
X[48,17] 0
X[48,18] 0
X[48,19] 0
X[48,20] 0
X[48,21] 0
X[48,22] 0
X[48,23] 0
X[48,24] 0
X[48,25] 0
X[48,26] 0
X[48,27] 0
X[48,28] 0
X[48,29] 0
X[48,30] 0
X[48,31] 0
X[48,32] 0
X[48,33] 0
X[48,34] 0
X[48,35] 0
X[48,36] 0
X[48,37] 0
X[48,38] 0
X[48,39] 0
X[48,40] 1
X[48,41] 0
X[48,42] 0
X[48,43] 0
X[48,44] 0
X[48,45] 0
X[48,46] 0
X[48,47] 0
X[48,48] 0
X[48,49] 0
X[48,50] 0
X[48,51] 0
X[48,52] 0
X[48,53] 0
X[48,54] 0
X[49,0] 0
X[49,1] 0
X[49,2] 0
X[49,3] 0
X[49,4] 0
X[49,5] 0
X[49,6] 0
X[49,7] 0
X[49,8] 0
X[49,9] 0
X[49,10] 0
X[49,11] 0
X[49,12] 0
X[49,13] 0
X[49,14] 0
X[49,15] 0
X[49,16] 0
X[49,17] 0
X[49,18] 0
X[49,19] 0
X[49,20] 0
X[49,21] 0
X[49,22] 0
X[49,23] 0
X[49,24] 0
X[49,25] 0
X[49,26] 0
X[49,27] 0
X[49,28] 0
X[49,29] 0
X[49,30] 0
X[49,31] 0
X[49,32] 0
X[49,33] 0
X[49,34] 0
X[49,35] 0
X[49,36] 0
X[49,37] 0
X[49,38] 0
X[49,39] 0
X[49,40] 0
X[49,41] 0
X[49,42] 0
X[49,43] 0
X[49,44] 0
X[49,45] 1
X[49,46] 0
X[49,47] 0
X[49,48] 0
X[49,49] 0
X[49,50] 0
X[49,51] 0
X[49,52] 0
X[49,53] 0
X[49,54] 0
X[50,0] 0
X[50,1] 0
X[50,2] 0
X[50,3] 0
X[50,4] 0
X[50,5] 0
X[50,6] 0
X[50,7] 0
X[50,8] 0
X[50,9] 0
X[50,10] 0
X[50,11] 0
X[50,12] 0
X[50,13] 0
X[50,14] 0
X[50,15] 0
X[50,16] 0
X[50,17] 0
X[50,18] 0
X[50,19] 0
X[50,20] 0
X[50,21] 0
X[50,22] 0
X[50,23] 0
X[50,24] 0
X[50,25] 0
X[50,26] 0
X[50,27] 0
X[50,28] 0
X[50,29] 0
X[50,30] 0
X[50,31] 0
X[50,32] 0
X[50,33] 0
X[50,34] 0
X[50,35] 0
X[50,36] 0
X[50,37] 0
X[50,38] 0
X[50,39] 0
X[50,40] 1
X[50,41] 0
X[50,42] 0
X[50,43] 0
X[50,44] 0
X[50,45] 0
X[50,46] 0
X[50,47] 0
X[50,48] 0
X[50,49] 0
X[50,50] 0
X[50,51] 0
X[50,52] 0
X[50,53] 0
X[50,54] 0
X[51,0] 0
X[51,1] 0
X[51,2] 0
X[51,3] 0
X[51,4] 0
X[51,5] 0
X[51,6] 0
X[51,7] 0
X[51,8] 0
X[51,9] 0
X[51,10] 0
X[51,11] 0
X[51,12] 0
X[51,13] 0
X[51,14] 0
X[51,15] 0
X[51,16] 0
X[51,17] 0
X[51,18] 0
X[51,19] 0
X[51,20] 0
X[51,21] 0
X[51,22] 0
X[51,23] 0
X[51,24] 0
X[51,25] 0
X[51,26] 0
X[51,27] 0
X[51,28] 0
X[51,29] 0
X[51,30] 0
X[51,31] 0
X[51,32] 0
X[51,33] 0
X[51,34] 0
X[51,35] 0
X[51,36] 0
X[51,37] 0
X[51,38] 0
X[51,39] 0
X[51,40] 0
X[51,41] 0
X[51,42] 0
X[51,43] 0
X[51,44] 0
X[51,45] 1
X[51,46] 0
X[51,47] 0
X[51,48] 0
X[51,49] 0
X[51,50] 0
X[51,51] 0
X[51,52] 0
X[51,53] 0
X[51,54] 0
X[52,0] 0
X[52,1] 0
X[52,2] 0
X[52,3] 0
X[52,4] 0
X[52,5] 0
X[52,6] 0
X[52,7] 0
X[52,8] 0
X[52,9] 0
X[52,10] 0
X[52,11] 0
X[52,12] 0
X[52,13] 0
X[52,14] 0
X[52,15] 0
X[52,16] 0
X[52,17] 0
X[52,18] 0
X[52,19] 0
X[52,20] 0
X[52,21] 0
X[52,22] 0
X[52,23] 0
X[52,24] 0
X[52,25] 0
X[52,26] 0
X[52,27] 0
X[52,28] 0
X[52,29] 0
X[52,30] 0
X[52,31] 0
X[52,32] 0
X[52,33] 0
X[52,34] 0
X[52,35] 0
X[52,36] 0
X[52,37] 0
X[52,38] 0
X[52,39] 0
X[52,40] 0
X[52,41] 0
X[52,42] 0
X[52,43] 0
X[52,44] 0
X[52,45] 1
X[52,46] 0
X[52,47] 0
X[52,48] 0
X[52,49] 0
X[52,50] 0
X[52,51] 0
X[52,52] 0
X[52,53] 0
X[52,54] 0
X[53,0] 0
X[53,1] 0
X[53,2] 0
X[53,3] 0
X[53,4] 0
X[53,5] 0
X[53,6] 0
X[53,7] 0
X[53,8] 0
X[53,9] 0
X[53,10] 0
X[53,11] 0
X[53,12] 0
X[53,13] 0
X[53,14] 0
X[53,15] 0
X[53,16] 0
X[53,17] 0
X[53,18] 0
X[53,19] 0
X[53,20] 0
X[53,21] 0
X[53,22] 0
X[53,23] 0
X[53,24] 0
X[53,25] 0
X[53,26] 0
X[53,27] 0
X[53,28] 0
X[53,29] 0
X[53,30] 0
X[53,31] 0
X[53,32] 0
X[53,33] 0
X[53,34] 0
X[53,35] 0
X[53,36] 0
X[53,37] 0
X[53,38] 0
X[53,39] 0
X[53,40] 0
X[53,41] 0
X[53,42] 0
X[53,43] 0
X[53,44] 0
X[53,45] 1
X[53,46] 0
X[53,47] 0
X[53,48] 0
X[53,49] 0
X[53,50] 0
X[53,51] 0
X[53,52] 0
X[53,53] 0
X[53,54] 0
X[54,0] 0
X[54,1] 0
X[54,2] 0
X[54,3] 0
X[54,4] 0
X[54,5] 0
X[54,6] 0
X[54,7] 0
X[54,8] 0
X[54,9] 0
X[54,10] 0
X[54,11] 0
X[54,12] 0
X[54,13] 0
X[54,14] 0
X[54,15] 0
X[54,16] 0
X[54,17] 0
X[54,18] 0
X[54,19] 0
X[54,20] 0
X[54,21] 0
X[54,22] 0
X[54,23] 0
X[54,24] 0
X[54,25] 0
X[54,26] 0
X[54,27] 0
X[54,28] 0
X[54,29] 0
X[54,30] 0
X[54,31] 0
X[54,32] 0
X[54,33] 0
X[54,34] 0
X[54,35] 0
X[54,36] 0
X[54,37] 0
X[54,38] 0
X[54,39] 0
X[54,40] 0
X[54,41] 0
X[54,42] 0
X[54,43] 0
X[54,44] 0
X[54,45] 1
X[54,46] 0
X[54,47] 0
X[54,48] 0
X[54,49] 0
X[54,50] 0
X[54,51] 0
X[54,52] 0
X[54,53] 0
X[54,54] 0
Y[0] 0
Y[1] 0
Y[2] 0
Y[3] 0
Y[4] 0
Y[5] 0
Y[6] 0
Y[7] 0
Y[8] 0
Y[9] 0
Y[10] 0
Y[11] 1
Y[12] 0
Y[13] 0
Y[14] 0
Y[15] 0
Y[16] 0
Y[17] 0
Y[18] 0
Y[19] 0
Y[20] 0
Y[21] 0
Y[22] 0
Y[23] 0
Y[24] 0
Y[25] 0
Y[26] 0
Y[27] 0
Y[28] 0
Y[29] 0
Y[30] 0
Y[31] 0
Y[32] 0
Y[33] 0
Y[34] 0
Y[35] 0
Y[36] 0
Y[37] 0
Y[38] 0
Y[39] 0
Y[40] 1
Y[41] 0
Y[42] 0
Y[43] 0
Y[44] 0
Y[45] 1
Y[46] 0
Y[47] 0
Y[48] 0
Y[49] 0
Y[50] 0
Y[51] 0
Y[52] 0
Y[53] 0
Y[54] 0
Z 1.7464249196572979e+01
